
******************************************************************************
This program contains Ipopt, a library for large-scale nonlinear optimization.
 Ipopt is released as open source code under the Eclipse Public License (EPL).
         For more information visit http://projects.coin-or.org/Ipopt

This version of Ipopt was compiled from source code available at
    https://github.com/IDAES/Ipopt as part of the Institute for the Design of
    Advanced Energy Systems Process Systems Engineering Framework (IDAES PSE
    Framework) Copyright (c) 2018-2019. See https://github.com/IDAES/idaes-pse.

This version of Ipopt was compiled using HSL, a collection of Fortran codes
    for large-scale scientific computation.  All technical papers, sales and
    publicity material resulting from use of the HSL codes within IPOPT must
    contain the following acknowledgement:
        HSL, a collection of Fortran codes for large-scale scientific
        computation. See http://www.hsl.rl.ac.uk.
******************************************************************************

This is Ipopt version 3.13.2, running with linear solver ma27.

Number of nonzeros in equality constraint Jacobian...:      808
Number of nonzeros in inequality constraint Jacobian.:        0
Number of nonzeros in Lagrangian Hessian.............:      702

Total number of variables............................:      351
                     variables with only lower bounds:      108
                variables with lower and upper bounds:      189
                     variables with only upper bounds:        0
Total number of equality constraints.................:      350
Total number of inequality constraints...............:        0
        inequality constraints with only lower bounds:        0
   inequality constraints with lower and upper bounds:        0
        inequality constraints with only upper bounds:        0

iter    objective    inf_pr   inf_du lg(mu)  ||d||  lg(rg) alpha_du alpha_pr  ls
   0  0.0000000e+00 4.91e-01 4.44e-16  -1.0 0.00e+00    -  0.00e+00 0.00e+00   0
   1  6.3554530e+00 2.52e+00 4.01e+04  -1.0 2.86e+05    -  5.23e-01 5.42e-01h  1
   2  7.2889811e+00 2.30e+00 3.70e+04  -1.0 1.61e+05    -  7.99e-01 7.04e-02h  1
   3  7.6821196e+00 2.24e+00 3.60e+04  -1.0 2.13e+05    -  8.04e-01 2.87e-02h  1
   4  3.2262967e+01 2.07e-01 1.21e+04  -1.0 2.10e+05    -  8.13e-01 9.90e-01h  1
   5  3.6308563e+01 2.48e-02 9.81e+02  -1.0 2.63e+04    -  7.51e-01 8.74e-01h  1
   6  3.6955786e+01 2.66e-04 1.19e+04  -1.0 3.59e+03    -  3.89e-01 9.90e-01h  1
   7  3.6964980e+01 2.72e-06 9.36e+05  -1.0 5.00e+01    -  5.04e-01 9.90e-01h  1
   8  3.6968912e+01 5.81e-07 7.93e+07  -1.0 4.81e+01    -  5.79e-01 9.90e-01h  1
   9  3.6977357e+01 4.66e-08 7.29e+09  -1.0 1.05e+02    -  6.11e-01 9.90e-01H  1
iter    objective    inf_pr   inf_du lg(mu)  ||d||  lg(rg) alpha_du alpha_pr  ls
  10  3.6977396e+01 4.66e-08 1.18e+12  -1.0 2.47e+02    -  6.17e-01 1.93e-03h 10
  11  3.6977418e+01 4.66e-08 1.99e+12  -1.0 5.50e+02    -  4.22e-01 4.83e-04h 12
  12  3.6977426e+01 4.65e-08 2.62e+12  -1.0 8.26e+02    -  3.26e-01 1.21e-04h 14
  13  3.7000963e+01 2.21e-05 1.89e+12  -1.0 1.05e+03    -  2.76e-01 2.76e-01s 22
  14  3.7047862e+01 9.50e-05 9.08e+11  -1.0 1.10e+03    -  5.21e-01 5.21e-01s 22
  15  3.7123121e+01 2.20e-04 1.41e+11  -1.0 1.09e+03    -  8.45e-01 8.45e-01s 22
  16  3.7174717e+01 9.77e-05 1.41e+09  -1.0 6.35e+02    -  9.90e-01 9.90e-01s 22
  17  3.7069781e+01 4.42e-04 5.31e+13  -2.5 2.70e+03    -  9.98e-01 4.74e-01f  2
In iteration 17, 27 Slacks too small, adjusting variable bounds
  18  3.6968501e+01 3.83e-04 6.95e+11  -2.5 1.25e+03    -  1.00e+00 9.97e-01h  1
  19  3.6968074e+01 2.13e-08 3.12e-02  -2.5 4.66e+00    -  1.00e+00 1.00e+00h  1
iter    objective    inf_pr   inf_du lg(mu)  ||d||  lg(rg) alpha_du alpha_pr  ls
  20  3.6962479e+01 1.29e-06 2.21e+12  -9.0 6.98e+01    -  1.00e+00 9.85e-01f  1
  21  3.6962477e+01 5.40e-12 8.58e+03  -9.0 2.06e-02    -  1.00e+00 1.00e+00h  1
  22  3.6962477e+01 6.82e-13 2.63e-12  -9.0 1.07e-05    -  1.00e+00 1.00e+00h  1

Number of Iterations....: 22

                                   (scaled)                 (unscaled)
Objective...............:   3.6962477276790402e+01    3.6962477276790402e+01
Dual infeasibility......:   2.6274980175885077e-12    2.6274980175885077e-12
Constraint violation....:   6.8201000402723366e-13    6.8201000402723366e-13
Complementarity.........:   9.0909617312918537e-10    9.0909617312918537e-10
Overall NLP error.......:   6.8201000402723366e-13    9.0909617312918537e-10


Number of objective function evaluations             = 96
Number of objective gradient evaluations             = 23
Number of equality constraint evaluations            = 96
Number of inequality constraint evaluations          = 0
Number of equality constraint Jacobian evaluations   = 23
Number of inequality constraint Jacobian evaluations = 0
Number of Lagrangian Hessian evaluations             = 22
Total CPU secs in IPOPT (w/o function evaluations)   =      0.043
Total CPU secs in NLP function evaluations           =      0.728

EXIT: Optimal Solution Found.
